%nprocshared=4
%chk=MeNO2_isatin_TS4_freq.chk
# freq scrf=(cpcm,solvent=nitromethane) pop=nbo def2svp m062x

MeNO2 + isatin TS4 freq

0 1
 N                  2.12254000   -0.41755700    1.31286900
 O                  2.57045400    0.71246100    1.47347300
 O                  2.87687300   -1.33585900    0.83917200
 C                  0.80696600   -0.70830500    1.47776800
 H                  0.24001900    0.03044200    2.04074600
 H                  0.57650300   -1.76888800    1.51267100
 H                  3.32377300   -0.77887800   -0.39299400
 C                 -3.89437800   -0.42431200    0.34646200
 C                 -3.08420600    0.71806500    0.31000400
 C                 -1.75499700    0.54327300   -0.04966800
 C                 -1.24244500   -0.72986600   -0.35148800
 C                 -2.05310600   -1.85525800   -0.32078100
 C                 -3.39597600   -1.69212200    0.03291500
 H                 -4.94422100   -0.31606900    0.62275500
 H                 -3.48711400    1.70264000    0.54738800
 H                 -1.64350500   -2.83681000   -0.56483000
 H                 -4.05903400   -2.55674100    0.06422200
 C                  0.18668700   -0.55165200   -0.68130500
 C                  0.41137300    0.97279600   -0.60902200
 N                 -0.75926000    1.52345500   -0.18283400
 O                  1.43379000    1.56456100   -0.90561600
 O                  0.92153500   -1.31490500   -1.33135200
 C                 -0.96149000    2.93780000    0.04168100
 H                 -1.72998600    3.32984600   -0.63900500
 H                 -1.26800700    3.12015000    1.08083100
 H                 -0.01039900    3.44555200   -0.15258700
 O                  3.21517200   -0.38879700   -1.37752400
 H                  2.26709500   -0.82425900   -1.55133000
 H                  2.93874900    0.54953200   -1.24273700

