%nprocshared=4
%chk=MeNO2_isatin_TS4_product_opt.chk
# opt freq scrf=(cpcm,solvent=nitromethane) def2svp m062x

MeNO2 + isatin TS4 product opt freq

-1 1
 N                  0.77586000    0.38349200    1.80790400
 O                  0.97770400    1.56694300    1.83598200
 O                  1.63539700   -0.46837900    1.92606700
 C                 -0.61468700   -0.10495900    1.58892700
 H                 -1.28476900    0.59237400    2.10359500
 H                 -0.65154100   -1.10670600    2.02791000
 H                  3.31643900    0.18835500    1.48835200
 C                 -5.03571200   -1.28523800   -0.25774800
 C                 -4.57608000    0.01407100   -0.51174800
 C                 -3.21086200    0.24238800   -0.39182300
 C                 -2.32773400   -0.77906200   -0.02061900
 C                 -2.78814800   -2.05966300    0.22616400
 C                 -4.16181100   -2.31253300    0.09887700
 H                 -6.10285400   -1.49450300   -0.34733200
 H                 -5.26340800    0.80971200   -0.79979300
 H                 -2.09493300   -2.85519800    0.50712500
 H                 -4.54902000   -3.31565900    0.27955700
 C                 -0.93364100   -0.20295500    0.07390600
 C                 -1.14913000    1.22656400   -0.50796600
 N                 -2.50409200    1.42634900   -0.63107900
 O                 -0.28577300    2.01397800   -0.80552500
 O                  0.00649000   -0.93982500   -0.61286700
 C                 -3.09730600    2.64483000   -1.12877300
 H                 -3.60655800    2.46687300   -2.08749500
 H                 -3.82225200    3.04424200   -0.40573700
 H                 -2.29149100    3.37227100   -1.27647300
 H                  0.87423400   -0.44876100   -0.68161700
 O                  2.30369700    0.28953000   -0.86132400
 S                  3.60369000   -0.35856600   -0.53952300
 O                  3.46938400   -1.79256200   -0.27781300
 O                  4.05647600    0.32686800    0.86413600
 O                  4.67960600    0.01877000   -1.44967300

