%nprocshared=4
%chk=CH2NO2H_opt.chk
# opt freq scrf=(cpcm,solvent=ethanol) def2svp m062x

CH2NO2H

0 1
 N                  1.20229400   -0.05781400    0.07098100
 O                  2.17384500    0.21059600   -0.61849500
 O                  0.71165900   -1.22736800    0.01504800
 C                  0.58496900    0.89063000    0.85213200
 H                  1.10451639    1.78854535    1.11427420
 H                 -0.41494298    0.73073584    1.19783401
 H                  1.29294117   -1.99050564   -0.02144846

