%nprocshared=4
%chk=Isatin_opt.chk
# opt freq scrf=(cpcm,solvent=ethanol) pop=nbo def2svp m062x

Isatin opt

0 1
 C                 -1.97488579    0.00000000    0.00000000
 C                 -0.57972579    0.00000000    0.00000000
 C                  0.11781221    1.20775100    0.00000000
 C                 -0.57984179    2.41626000   -0.00119900
 C                 -1.97466679    2.41618200   -0.00167800
 C                 -2.67226779    1.20797600   -0.00068200
 H                 -2.52464479   -0.95231700    0.00045000
 H                 -0.03021779   -0.95251300    0.00131500
 H                 -2.52478879    3.36846300   -0.00263100
 H                 -3.77187179    1.20815900   -0.00086200
 C                  0.50915571    3.50515134   -0.00089624
 C                  1.99586901    3.10355254    0.00051268
 N                  1.53774163    1.58814567    0.00056791
 O                  2.89100637    3.98802956    0.00076711
 O                  0.18833479    4.72196837   -0.00179618
 C                  2.56051629    0.53228982    0.00120470
 H                  2.44613107   -0.07454813    0.87502604
 H                  2.44661935   -0.07512894   -0.87227681
 H                  3.53326680    0.97799873    0.00132838

