%nprocshared=4
%chk=MeNO2_opt.chk
# opt freq scrf=(cpcm,solvent=ethanol) def2svp m062x

MeNO2 opt

0 1
 N                 -0.16922700   -0.00041100   -0.01082400
 O                 -0.74694500   -1.06030400    0.00293100
 O                 -0.71021800    1.07928900    0.00275000
 C                  1.31828800   -0.01780600   -0.00225100
 H                  1.62299500    0.14083800    1.03862200
 H                  1.64853400   -0.99253900   -0.36618300
 H                  1.66063500    0.80953500   -0.62861000

